(declare-const delta_iz Int)
(declare-const delta_ix Int)
(declare-const delta_iy Int)
(assert (exists
         ((|iz'?1| Int) (|ix'?2| Int) (|S1,0?3| Real) (|iy'?4| Int)
            (KSUM1?5 Int) (|K1,0?6| Int) (K?7 Int) (|iy'?8| Int)
            (|ix'?9| Int) (cxm?10 Int) (ix?11 Int) (cym?12 Int) (iy?13 Int)
            (cz?14 Int) (iz?15 Int))
         (and (<= (- iz?15) 0) (< (+ (- cz?14) iz?15) 0) (<= (- K?7) 0)
                (<= (- |K1,0?6|) 0) (= (+ |K1,0?6| (- K?7)) 0)
                (<= (+ KSUM1?5 (- K?7)) 0)
                (= (+ (- |S1,0?3|) |iy'?4| (- |K1,0?6|)) 0)
                (= (+ (- KSUM1?5) |K1,0?6|) 0) (= |S1,0?3| 0)
                (or (and (= K?7 0) (= (+ (- |ix'?2|) ix?11) 0)
                           (= (- |iy'?4|) 0))
                      (and (<= (+ (- K?7) 1) 0) (<= (+ (- cym?12) 1) 0)
                             (<= (+ (- cym?12) |iy'?4|) 0)
                             (<= (+ cxm?10 (- |ix'?2|)) 0) (<= (- |ix'?2|) 0)
                             (<= (+ (- |iy'?4|) 1) 0)))
                (= (+ |iy'?4| (- K?7)) 0) (<= (- K?7) 0) (<= (- |iy'?4|) 0)
                (<= (+ cym?12 (- |iy'?4|)) 0) (= (+ |ix'?9| (- |ix'?2|)) 0)
                (= (+ |iy'?8| (- |iy'?4|)) 0) (= (+ |iz'?1| (- iz?15) -1) 0)
                (= delta_iz (+ |iz'?1| (- iz?15)))
                (= delta_iy (+ |iy'?8| (- iy?13)))
                (= delta_ix (+ |ix'?9| (- ix?11))))))
(check-sat)
